predicate knapsackChoco(array [int] of int: w,array [int] of int: p,array [int] of var int: x,var int: W,var int: P);
array [1..91] of int: X_INTRODUCED_269_ = [1,-360,-83,-59,-130,-431,-67,-230,-52,-93,-125,-670,-892,-600,-38,-48,-147,-78,-256,-63,-17,-120,-164,-432,-35,-92,-110,-22,-42,-50,-323,-514,-28,-87,-73,-78,-15,-26,-78,-210,-36,-85,-189,-274,-43,-33,-10,-19,-389,-276,-312,-94,-68,-73,-192,-41,-163,-16,-40,-195,-138,-73,-152,-400,-26,-14,-170,-205,-57,-369,-435,-123,-25,-94,-88,-90,-146,-55,-29,-82,-74,-100,-72,-31,-29,-316,-244,-70,-82,-90,-52];
array [1..90] of int: X_INTRODUCED_270_ = [7,0,30,22,80,94,11,81,70,64,59,18,0,36,3,8,15,42,9,0,42,47,52,32,26,48,55,6,29,84,2,4,18,56,7,29,93,44,71,3,86,66,31,65,0,79,20,65,52,13,48,14,5,72,14,39,46,27,11,91,15,25,0,94,53,48,27,99,6,17,69,43,0,57,7,21,78,10,37,26,20,8,4,43,17,25,36,60,84,40];
array [1..90] of int: X_INTRODUCED_271_ = [360,83,59,130,431,67,230,52,93,125,670,892,600,38,48,147,78,256,63,17,120,164,432,35,92,110,22,42,50,323,514,28,87,73,78,15,26,78,210,36,85,189,274,43,33,10,19,389,276,312,94,68,73,192,41,163,16,40,195,138,73,152,400,26,14,170,205,57,369,435,123,25,94,88,90,146,55,29,82,74,100,72,31,29,316,244,70,82,90,52];
array [1..90] of int: X_INTRODUCED_272_ = [8,66,98,50,0,30,0,88,15,37,26,72,61,57,17,27,83,3,9,66,97,42,2,44,71,11,25,74,90,20,0,38,33,14,9,23,12,58,6,14,78,0,12,99,84,31,16,7,33,20,5,18,96,63,31,0,70,4,66,9,15,25,2,0,48,1,40,31,82,79,56,34,3,19,52,36,95,6,35,34,74,26,10,85,63,31,22,9,92,18];
array [1..90] of int: X_INTRODUCED_273_ = [3,74,88,50,55,19,0,6,30,62,17,81,25,46,67,28,36,8,1,52,19,37,27,62,39,84,16,14,21,5,60,82,72,89,16,5,29,7,80,97,41,46,15,92,51,76,57,90,10,37,25,93,5,39,0,97,6,96,2,81,69,4,32,78,65,83,62,89,45,53,52,76,72,23,89,48,41,1,27,19,3,32,82,20,2,51,18,42,4,26];
array [1..90] of int: X_INTRODUCED_274_ = [21,40,0,6,82,91,43,30,62,91,10,41,12,4,80,77,98,50,78,35,7,1,96,67,85,4,23,38,2,57,4,53,0,33,2,25,14,97,87,42,15,65,19,83,67,70,80,39,9,5,41,31,36,15,30,87,28,13,40,0,51,79,75,43,91,60,24,18,85,83,3,85,2,5,51,63,52,85,17,62,7,86,48,2,1,15,74,80,57,16];
array [1..90] of int: X_INTRODUCED_275_ = [94,86,80,92,31,17,65,51,46,66,44,3,26,0,39,20,11,6,55,70,11,75,82,35,47,99,5,14,23,38,94,66,64,27,77,50,28,25,61,10,30,15,12,24,90,25,39,47,98,83,56,36,6,66,89,45,38,1,18,88,19,39,20,1,7,34,68,32,31,58,41,99,92,67,33,26,25,68,37,6,11,17,48,79,63,77,17,29,18,60];
var 0..1: X_INTRODUCED_0_;
var 0..1: X_INTRODUCED_1_;
var 0..1: X_INTRODUCED_2_;
var 0..1: X_INTRODUCED_3_;
var 0..1: X_INTRODUCED_4_;
var 0..1: X_INTRODUCED_5_;
var 0..1: X_INTRODUCED_6_;
var 0..1: X_INTRODUCED_7_;
var 0..1: X_INTRODUCED_8_;
var 0..1: X_INTRODUCED_9_;
var 0..1: X_INTRODUCED_10_;
var 0..1: X_INTRODUCED_11_;
var 0..1: X_INTRODUCED_12_;
var 0..1: X_INTRODUCED_13_;
var 0..1: X_INTRODUCED_14_;
var 0..1: X_INTRODUCED_15_;
var 0..1: X_INTRODUCED_16_;
var 0..1: X_INTRODUCED_17_;
var 0..1: X_INTRODUCED_18_;
var 0..1: X_INTRODUCED_19_;
var 0..1: X_INTRODUCED_20_;
var 0..1: X_INTRODUCED_21_;
var 0..1: X_INTRODUCED_22_;
var 0..1: X_INTRODUCED_23_;
var 0..1: X_INTRODUCED_24_;
var 0..1: X_INTRODUCED_25_;
var 0..1: X_INTRODUCED_26_;
var 0..1: X_INTRODUCED_27_;
var 0..1: X_INTRODUCED_28_;
var 0..1: X_INTRODUCED_29_;
var 0..1: X_INTRODUCED_30_;
var 0..1: X_INTRODUCED_31_;
var 0..1: X_INTRODUCED_32_;
var 0..1: X_INTRODUCED_33_;
var 0..1: X_INTRODUCED_34_;
var 0..1: X_INTRODUCED_35_;
var 0..1: X_INTRODUCED_36_;
var 0..1: X_INTRODUCED_37_;
var 0..1: X_INTRODUCED_38_;
var 0..1: X_INTRODUCED_39_;
var 0..1: X_INTRODUCED_40_;
var 0..1: X_INTRODUCED_41_;
var 0..1: X_INTRODUCED_42_;
var 0..1: X_INTRODUCED_43_;
var 0..1: X_INTRODUCED_44_;
var 0..1: X_INTRODUCED_45_;
var 0..1: X_INTRODUCED_46_;
var 0..1: X_INTRODUCED_47_;
var 0..1: X_INTRODUCED_48_;
var 0..1: X_INTRODUCED_49_;
var 0..1: X_INTRODUCED_50_;
var 0..1: X_INTRODUCED_51_;
var 0..1: X_INTRODUCED_52_;
var 0..1: X_INTRODUCED_53_;
var 0..1: X_INTRODUCED_54_;
var 0..1: X_INTRODUCED_55_;
var 0..1: X_INTRODUCED_56_;
var 0..1: X_INTRODUCED_57_;
var 0..1: X_INTRODUCED_58_;
var 0..1: X_INTRODUCED_59_;
var 0..1: X_INTRODUCED_60_;
var 0..1: X_INTRODUCED_61_;
var 0..1: X_INTRODUCED_62_;
var 0..1: X_INTRODUCED_63_;
var 0..1: X_INTRODUCED_64_;
var 0..1: X_INTRODUCED_65_;
var 0..1: X_INTRODUCED_66_;
var 0..1: X_INTRODUCED_67_;
var 0..1: X_INTRODUCED_68_;
var 0..1: X_INTRODUCED_69_;
var 0..1: X_INTRODUCED_70_;
var 0..1: X_INTRODUCED_71_;
var 0..1: X_INTRODUCED_72_;
var 0..1: X_INTRODUCED_73_;
var 0..1: X_INTRODUCED_74_;
var 0..1: X_INTRODUCED_75_;
var 0..1: X_INTRODUCED_76_;
var 0..1: X_INTRODUCED_77_;
var 0..1: X_INTRODUCED_78_;
var 0..1: X_INTRODUCED_79_;
var 0..1: X_INTRODUCED_80_;
var 0..1: X_INTRODUCED_81_;
var 0..1: X_INTRODUCED_82_;
var 0..1: X_INTRODUCED_83_;
var 0..1: X_INTRODUCED_84_;
var 0..1: X_INTRODUCED_85_;
var 0..1: X_INTRODUCED_86_;
var 0..1: X_INTRODUCED_87_;
var 0..1: X_INTRODUCED_88_;
var 0..1: X_INTRODUCED_89_;
var 0..2100: X_INTRODUCED_90_;
var 0..1100: X_INTRODUCED_91_;
var 0..3300: X_INTRODUCED_92_;
var 0..3700: X_INTRODUCED_93_;
var 0..3600: X_INTRODUCED_94_;
var 0..13417: objective:: output_var:: is_defined_var;
array [1..90] of var int: x:: output_array([1..90]) = [X_INTRODUCED_0_,X_INTRODUCED_1_,X_INTRODUCED_2_,X_INTRODUCED_3_,X_INTRODUCED_4_,X_INTRODUCED_5_,X_INTRODUCED_6_,X_INTRODUCED_7_,X_INTRODUCED_8_,X_INTRODUCED_9_,X_INTRODUCED_10_,X_INTRODUCED_11_,X_INTRODUCED_12_,X_INTRODUCED_13_,X_INTRODUCED_14_,X_INTRODUCED_15_,X_INTRODUCED_16_,X_INTRODUCED_17_,X_INTRODUCED_18_,X_INTRODUCED_19_,X_INTRODUCED_20_,X_INTRODUCED_21_,X_INTRODUCED_22_,X_INTRODUCED_23_,X_INTRODUCED_24_,X_INTRODUCED_25_,X_INTRODUCED_26_,X_INTRODUCED_27_,X_INTRODUCED_28_,X_INTRODUCED_29_,X_INTRODUCED_30_,X_INTRODUCED_31_,X_INTRODUCED_32_,X_INTRODUCED_33_,X_INTRODUCED_34_,X_INTRODUCED_35_,X_INTRODUCED_36_,X_INTRODUCED_37_,X_INTRODUCED_38_,X_INTRODUCED_39_,X_INTRODUCED_40_,X_INTRODUCED_41_,X_INTRODUCED_42_,X_INTRODUCED_43_,X_INTRODUCED_44_,X_INTRODUCED_45_,X_INTRODUCED_46_,X_INTRODUCED_47_,X_INTRODUCED_48_,X_INTRODUCED_49_,X_INTRODUCED_50_,X_INTRODUCED_51_,X_INTRODUCED_52_,X_INTRODUCED_53_,X_INTRODUCED_54_,X_INTRODUCED_55_,X_INTRODUCED_56_,X_INTRODUCED_57_,X_INTRODUCED_58_,X_INTRODUCED_59_,X_INTRODUCED_60_,X_INTRODUCED_61_,X_INTRODUCED_62_,X_INTRODUCED_63_,X_INTRODUCED_64_,X_INTRODUCED_65_,X_INTRODUCED_66_,X_INTRODUCED_67_,X_INTRODUCED_68_,X_INTRODUCED_69_,X_INTRODUCED_70_,X_INTRODUCED_71_,X_INTRODUCED_72_,X_INTRODUCED_73_,X_INTRODUCED_74_,X_INTRODUCED_75_,X_INTRODUCED_76_,X_INTRODUCED_77_,X_INTRODUCED_78_,X_INTRODUCED_79_,X_INTRODUCED_80_,X_INTRODUCED_81_,X_INTRODUCED_82_,X_INTRODUCED_83_,X_INTRODUCED_84_,X_INTRODUCED_85_,X_INTRODUCED_86_,X_INTRODUCED_87_,X_INTRODUCED_88_,X_INTRODUCED_89_];
array [1..91] of var int: X_INTRODUCED_268_ ::var_is_introduced  = [objective,X_INTRODUCED_0_,X_INTRODUCED_1_,X_INTRODUCED_2_,X_INTRODUCED_3_,X_INTRODUCED_4_,X_INTRODUCED_5_,X_INTRODUCED_6_,X_INTRODUCED_7_,X_INTRODUCED_8_,X_INTRODUCED_9_,X_INTRODUCED_10_,X_INTRODUCED_11_,X_INTRODUCED_12_,X_INTRODUCED_13_,X_INTRODUCED_14_,X_INTRODUCED_15_,X_INTRODUCED_16_,X_INTRODUCED_17_,X_INTRODUCED_18_,X_INTRODUCED_19_,X_INTRODUCED_20_,X_INTRODUCED_21_,X_INTRODUCED_22_,X_INTRODUCED_23_,X_INTRODUCED_24_,X_INTRODUCED_25_,X_INTRODUCED_26_,X_INTRODUCED_27_,X_INTRODUCED_28_,X_INTRODUCED_29_,X_INTRODUCED_30_,X_INTRODUCED_31_,X_INTRODUCED_32_,X_INTRODUCED_33_,X_INTRODUCED_34_,X_INTRODUCED_35_,X_INTRODUCED_36_,X_INTRODUCED_37_,X_INTRODUCED_38_,X_INTRODUCED_39_,X_INTRODUCED_40_,X_INTRODUCED_41_,X_INTRODUCED_42_,X_INTRODUCED_43_,X_INTRODUCED_44_,X_INTRODUCED_45_,X_INTRODUCED_46_,X_INTRODUCED_47_,X_INTRODUCED_48_,X_INTRODUCED_49_,X_INTRODUCED_50_,X_INTRODUCED_51_,X_INTRODUCED_52_,X_INTRODUCED_53_,X_INTRODUCED_54_,X_INTRODUCED_55_,X_INTRODUCED_56_,X_INTRODUCED_57_,X_INTRODUCED_58_,X_INTRODUCED_59_,X_INTRODUCED_60_,X_INTRODUCED_61_,X_INTRODUCED_62_,X_INTRODUCED_63_,X_INTRODUCED_64_,X_INTRODUCED_65_,X_INTRODUCED_66_,X_INTRODUCED_67_,X_INTRODUCED_68_,X_INTRODUCED_69_,X_INTRODUCED_70_,X_INTRODUCED_71_,X_INTRODUCED_72_,X_INTRODUCED_73_,X_INTRODUCED_74_,X_INTRODUCED_75_,X_INTRODUCED_76_,X_INTRODUCED_77_,X_INTRODUCED_78_,X_INTRODUCED_79_,X_INTRODUCED_80_,X_INTRODUCED_81_,X_INTRODUCED_82_,X_INTRODUCED_83_,X_INTRODUCED_84_,X_INTRODUCED_85_,X_INTRODUCED_86_,X_INTRODUCED_87_,X_INTRODUCED_88_,X_INTRODUCED_89_];
constraint int_lin_eq(X_INTRODUCED_269_,X_INTRODUCED_268_,0):: defines_var(objective);
constraint knapsackChoco(X_INTRODUCED_270_,X_INTRODUCED_271_,x,X_INTRODUCED_90_,11191);
constraint knapsackChoco(X_INTRODUCED_272_,X_INTRODUCED_271_,x,X_INTRODUCED_91_,11191);
constraint knapsackChoco(X_INTRODUCED_273_,X_INTRODUCED_271_,x,X_INTRODUCED_92_,11191);
constraint knapsackChoco(X_INTRODUCED_274_,X_INTRODUCED_271_,x,X_INTRODUCED_93_,11191);
constraint knapsackChoco(X_INTRODUCED_275_,X_INTRODUCED_271_,x,X_INTRODUCED_94_,11191);
solve :: int_search(x,input_order,indomain_max,complete) maximize objective;
